# Solution for model r10_t36_m7_1 Batch Number: 2
# Finished Task: 36 / 36
# Makespan: 446.0, Total Distance: 330.0, Total Time: 16.5294
# R O S F Batch
0 0 39 0.0 0.0 -1
1 1 38 0.0 0.0 -1
2 2 19 0.0 0.0 -1
3 3 25 0.0 0.0 -1
4 4 15 0.0 0.0 -1
5 5 27 0.0 0.0 -1
6 6 28 0.0 0.0 -1
7 7 34 0.0 0.0 -1
8 8 30 0.0 0.0 -1
9 9 17 0.0 0.0 -1
10 2 22 300.0 335.0 1
11 7 35 396.0 424.0 1
12 2 10 260.0 287.0 1
13 9 18 319.0 349.0 1
14 5 43 119.0 154.0 0
15 4 24 244.0 265.0 0
16 7 32 196.0 232.0 0
17 9 13 294.0 315.0 0
18 9 -1 361.0 381.0 1
19 2 29 30.0 63.0 0
20 3 36 387.0 408.0 0
21 8 41 371.0 408.0 0
22 2 33 363.0 391.0 1
23 5 14 77.0 109.0 0
24 4 45 369.0 408.0 0
25 3 20 364.0 387.0 0
26 0 -1 338.0 363.0 1
27 5 23 41.0 77.0 0
28 6 40 107.0 133.0 0
29 2 44 82.0 104.0 0
30 8 37 126.0 159.0 0
31 0 26 283.0 319.0 1
32 7 42 241.0 278.0 1
33 2 -1 425.0 446.0 1
34 7 16 143.0 178.0 0
35 7 -1 424.0 446.0 1
36 3 -1 408.0 446.0 1
37 8 21 159.0 183.0 0
38 1 -1 278.0 316.0 1
39 0 31 237.0 271.0 0
40 6 -1 371.0 408.0 0
41 8 -1 412.0 446.0 1
42 7 11 313.0 346.0 1
43 5 -1 181.0 208.0 0
44 2 12 151.0 175.0 0
45 4 -1 425.0 446.0 1
